c File: flat150_3_0.col
c
c SOURCE: Joseph Culberson (joe@cs.ualberta.ca)
c DESCRIPTION: Quasi-random coloring problem
c              generated with flatness = 0
c                             probability = 0.048
c                             known coloring = 3
c                             random seed = 1015
c              Creation Date:  Wed Feb 24 10:37:17 1999
c Maximum degree = 8 Minimum degree = 0
c COLOR VERIFICATION: Using the permuted order
c under simple greedy yields the specified
c coloring number
c Color = 3 specified partitions = 3
c p edge 150 360
c cnf created by edge2cnf
p cnf 450 1680
-1 -2 0
-1 -3 0
-2 -3 0
1 2 3 0
-4 -5 0
-4 -6 0
-5 -6 0
4 5 6 0
-7 -8 0
-7 -9 0
-8 -9 0
7 8 9 0
-10 -11 0
-10 -12 0
-11 -12 0
10 11 12 0
-13 -14 0
-13 -15 0
-14 -15 0
13 14 15 0
-16 -17 0
-16 -18 0
-17 -18 0
16 17 18 0
-19 -20 0
-19 -21 0
-20 -21 0
19 20 21 0
-22 -23 0
-22 -24 0
-23 -24 0
22 23 24 0
-25 -26 0
-25 -27 0
-26 -27 0
25 26 27 0
-28 -29 0
-28 -30 0
-29 -30 0
28 29 30 0
-31 -32 0
-31 -33 0
-32 -33 0
31 32 33 0
-34 -35 0
-34 -36 0
-35 -36 0
34 35 36 0
-37 -38 0
-37 -39 0
-38 -39 0
37 38 39 0
-40 -41 0
-40 -42 0
-41 -42 0
40 41 42 0
-43 -44 0
-43 -45 0
-44 -45 0
43 44 45 0
-46 -47 0
-46 -48 0
-47 -48 0
46 47 48 0
-49 -50 0
-49 -51 0
-50 -51 0
49 50 51 0
-52 -53 0
-52 -54 0
-53 -54 0
52 53 54 0
-55 -56 0
-55 -57 0
-56 -57 0
55 56 57 0
-58 -59 0
-58 -60 0
-59 -60 0
58 59 60 0
-61 -62 0
-61 -63 0
-62 -63 0
61 62 63 0
-64 -65 0
-64 -66 0
-65 -66 0
64 65 66 0
-67 -68 0
-67 -69 0
-68 -69 0
67 68 69 0
-70 -71 0
-70 -72 0
-71 -72 0
70 71 72 0
-73 -74 0
-73 -75 0
-74 -75 0
73 74 75 0
-76 -77 0
-76 -78 0
-77 -78 0
76 77 78 0
-79 -80 0
-79 -81 0
-80 -81 0
79 80 81 0
-82 -83 0
-82 -84 0
-83 -84 0
82 83 84 0
-85 -86 0
-85 -87 0
-86 -87 0
85 86 87 0
-88 -89 0
-88 -90 0
-89 -90 0
88 89 90 0
-91 -92 0
-91 -93 0
-92 -93 0
91 92 93 0
-94 -95 0
-94 -96 0
-95 -96 0
94 95 96 0
-97 -98 0
-97 -99 0
-98 -99 0
97 98 99 0
-100 -101 0
-100 -102 0
-101 -102 0
100 101 102 0
-103 -104 0
-103 -105 0
-104 -105 0
103 104 105 0
-106 -107 0
-106 -108 0
-107 -108 0
106 107 108 0
-109 -110 0
-109 -111 0
-110 -111 0
109 110 111 0
-112 -113 0
-112 -114 0
-113 -114 0
112 113 114 0
-115 -116 0
-115 -117 0
-116 -117 0
115 116 117 0
-118 -119 0
-118 -120 0
-119 -120 0
118 119 120 0
-121 -122 0
-121 -123 0
-122 -123 0
121 122 123 0
-124 -125 0
-124 -126 0
-125 -126 0
124 125 126 0
-127 -128 0
-127 -129 0
-128 -129 0
127 128 129 0
-130 -131 0
-130 -132 0
-131 -132 0
130 131 132 0
-133 -134 0
-133 -135 0
-134 -135 0
133 134 135 0
-136 -137 0
-136 -138 0
-137 -138 0
136 137 138 0
-139 -140 0
-139 -141 0
-140 -141 0
139 140 141 0
-142 -143 0
-142 -144 0
-143 -144 0
142 143 144 0
-145 -146 0
-145 -147 0
-146 -147 0
145 146 147 0
-148 -149 0
-148 -150 0
-149 -150 0
148 149 150 0
-151 -152 0
-151 -153 0
-152 -153 0
151 152 153 0
-154 -155 0
-154 -156 0
-155 -156 0
154 155 156 0
-157 -158 0
-157 -159 0
-158 -159 0
157 158 159 0
-160 -161 0
-160 -162 0
-161 -162 0
160 161 162 0
-163 -164 0
-163 -165 0
-164 -165 0
163 164 165 0
-166 -167 0
-166 -168 0
-167 -168 0
166 167 168 0
-169 -170 0
-169 -171 0
-170 -171 0
169 170 171 0
-172 -173 0
-172 -174 0
-173 -174 0
172 173 174 0
-175 -176 0
-175 -177 0
-176 -177 0
175 176 177 0
-178 -179 0
-178 -180 0
-179 -180 0
178 179 180 0
-181 -182 0
-181 -183 0
-182 -183 0
181 182 183 0
-184 -185 0
-184 -186 0
-185 -186 0
184 185 186 0
-187 -188 0
-187 -189 0
-188 -189 0
187 188 189 0
-190 -191 0
-190 -192 0
-191 -192 0
190 191 192 0
-193 -194 0
-193 -195 0
-194 -195 0
193 194 195 0
-196 -197 0
-196 -198 0
-197 -198 0
196 197 198 0
-199 -200 0
-199 -201 0
-200 -201 0
199 200 201 0
-202 -203 0
-202 -204 0
-203 -204 0
202 203 204 0
-205 -206 0
-205 -207 0
-206 -207 0
205 206 207 0
-208 -209 0
-208 -210 0
-209 -210 0
208 209 210 0
-211 -212 0
-211 -213 0
-212 -213 0
211 212 213 0
-214 -215 0
-214 -216 0
-215 -216 0
214 215 216 0
-217 -218 0
-217 -219 0
-218 -219 0
217 218 219 0
-220 -221 0
-220 -222 0
-221 -222 0
220 221 222 0
-223 -224 0
-223 -225 0
-224 -225 0
223 224 225 0
-226 -227 0
-226 -228 0
-227 -228 0
226 227 228 0
-229 -230 0
-229 -231 0
-230 -231 0
229 230 231 0
-232 -233 0
-232 -234 0
-233 -234 0
232 233 234 0
-235 -236 0
-235 -237 0
-236 -237 0
235 236 237 0
-238 -239 0
-238 -240 0
-239 -240 0
238 239 240 0
-241 -242 0
-241 -243 0
-242 -243 0
241 242 243 0
-244 -245 0
-244 -246 0
-245 -246 0
244 245 246 0
-247 -248 0
-247 -249 0
-248 -249 0
247 248 249 0
-250 -251 0
-250 -252 0
-251 -252 0
250 251 252 0
-253 -254 0
-253 -255 0
-254 -255 0
253 254 255 0
-256 -257 0
-256 -258 0
-257 -258 0
256 257 258 0
-259 -260 0
-259 -261 0
-260 -261 0
259 260 261 0
-262 -263 0
-262 -264 0
-263 -264 0
262 263 264 0
-265 -266 0
-265 -267 0
-266 -267 0
265 266 267 0
-268 -269 0
-268 -270 0
-269 -270 0
268 269 270 0
-271 -272 0
-271 -273 0
-272 -273 0
271 272 273 0
-274 -275 0
-274 -276 0
-275 -276 0
274 275 276 0
-277 -278 0
-277 -279 0
-278 -279 0
277 278 279 0
-280 -281 0
-280 -282 0
-281 -282 0
280 281 282 0
-283 -284 0
-283 -285 0
-284 -285 0
283 284 285 0
-286 -287 0
-286 -288 0
-287 -288 0
286 287 288 0
-289 -290 0
-289 -291 0
-290 -291 0
289 290 291 0
-292 -293 0
-292 -294 0
-293 -294 0
292 293 294 0
-295 -296 0
-295 -297 0
-296 -297 0
295 296 297 0
-298 -299 0
-298 -300 0
-299 -300 0
298 299 300 0
-301 -302 0
-301 -303 0
-302 -303 0
301 302 303 0
-304 -305 0
-304 -306 0
-305 -306 0
304 305 306 0
-307 -308 0
-307 -309 0
-308 -309 0
307 308 309 0
-310 -311 0
-310 -312 0
-311 -312 0
310 311 312 0
-313 -314 0
-313 -315 0
-314 -315 0
313 314 315 0
-316 -317 0
-316 -318 0
-317 -318 0
316 317 318 0
-319 -320 0
-319 -321 0
-320 -321 0
319 320 321 0
-322 -323 0
-322 -324 0
-323 -324 0
322 323 324 0
-325 -326 0
-325 -327 0
-326 -327 0
325 326 327 0
-328 -329 0
-328 -330 0
-329 -330 0
328 329 330 0
-331 -332 0
-331 -333 0
-332 -333 0
331 332 333 0
-334 -335 0
-334 -336 0
-335 -336 0
334 335 336 0
-337 -338 0
-337 -339 0
-338 -339 0
337 338 339 0
-340 -341 0
-340 -342 0
-341 -342 0
340 341 342 0
-343 -344 0
-343 -345 0
-344 -345 0
343 344 345 0
-346 -347 0
-346 -348 0
-347 -348 0
346 347 348 0
-349 -350 0
-349 -351 0
-350 -351 0
349 350 351 0
-352 -353 0
-352 -354 0
-353 -354 0
352 353 354 0
-355 -356 0
-355 -357 0
-356 -357 0
355 356 357 0
-358 -359 0
-358 -360 0
-359 -360 0
358 359 360 0
-361 -362 0
-361 -363 0
-362 -363 0
361 362 363 0
-364 -365 0
-364 -366 0
-365 -366 0
364 365 366 0
-367 -368 0
-367 -369 0
-368 -369 0
367 368 369 0
-370 -371 0
-370 -372 0
-371 -372 0
370 371 372 0
-373 -374 0
-373 -375 0
-374 -375 0
373 374 375 0
-376 -377 0
-376 -378 0
-377 -378 0
376 377 378 0
-379 -380 0
-379 -381 0
-380 -381 0
379 380 381 0
-382 -383 0
-382 -384 0
-383 -384 0
382 383 384 0
-385 -386 0
-385 -387 0
-386 -387 0
385 386 387 0
-388 -389 0
-388 -390 0
-389 -390 0
388 389 390 0
-391 -392 0
-391 -393 0
-392 -393 0
391 392 393 0
-394 -395 0
-394 -396 0
-395 -396 0
394 395 396 0
-397 -398 0
-397 -399 0
-398 -399 0
397 398 399 0
-400 -401 0
-400 -402 0
-401 -402 0
400 401 402 0
-403 -404 0
-403 -405 0
-404 -405 0
403 404 405 0
-406 -407 0
-406 -408 0
-407 -408 0
406 407 408 0
-409 -410 0
-409 -411 0
-410 -411 0
409 410 411 0
-412 -413 0
-412 -414 0
-413 -414 0
412 413 414 0
-415 -416 0
-415 -417 0
-416 -417 0
415 416 417 0
-418 -419 0
-418 -420 0
-419 -420 0
418 419 420 0
-421 -422 0
-421 -423 0
-422 -423 0
421 422 423 0
-424 -425 0
-424 -426 0
-425 -426 0
424 425 426 0
-427 -428 0
-427 -429 0
-428 -429 0
427 428 429 0
-430 -431 0
-430 -432 0
-431 -432 0
430 431 432 0
-433 -434 0
-433 -435 0
-434 -435 0
433 434 435 0
-436 -437 0
-436 -438 0
-437 -438 0
436 437 438 0
-439 -440 0
-439 -441 0
-440 -441 0
439 440 441 0
-442 -443 0
-442 -444 0
-443 -444 0
442 443 444 0
-445 -446 0
-445 -447 0
-446 -447 0
445 446 447 0
-448 -449 0
-448 -450 0
-449 -450 0
448 449 450 0
-82 -1 0
-83 -2 0
-84 -3 0
-220 -1 0
-221 -2 0
-222 -3 0
-274 -1 0
-275 -2 0
-276 -3 0
-289 -1 0
-290 -2 0
-291 -3 0
-352 -1 0
-353 -2 0
-354 -3 0
-373 -1 0
-374 -2 0
-375 -3 0
-10 -4 0
-11 -5 0
-12 -6 0
-22 -4 0
-23 -5 0
-24 -6 0
-100 -4 0
-101 -5 0
-102 -6 0
-136 -4 0
-137 -5 0
-138 -6 0
-169 -4 0
-170 -5 0
-171 -6 0
-337 -4 0
-338 -5 0
-339 -6 0
-370 -4 0
-371 -5 0
-372 -6 0
-58 -7 0
-59 -8 0
-60 -9 0
-331 -7 0
-332 -8 0
-333 -9 0
-373 -7 0
-374 -8 0
-375 -9 0
-121 -10 0
-122 -11 0
-123 -12 0
-265 -10 0
-266 -11 0
-267 -12 0
-301 -10 0
-302 -11 0
-303 -12 0
-340 -10 0
-341 -11 0
-342 -12 0
-121 -13 0
-122 -14 0
-123 -15 0
-187 -13 0
-188 -14 0
-189 -15 0
-262 -13 0
-263 -14 0
-264 -15 0
-271 -13 0
-272 -14 0
-273 -15 0
-286 -13 0
-287 -14 0
-288 -15 0
-361 -13 0
-362 -14 0
-363 -15 0
-265 -16 0
-266 -17 0
-267 -18 0
-358 -16 0
-359 -17 0
-360 -18 0
-376 -16 0
-377 -17 0
-378 -18 0
-157 -19 0
-158 -20 0
-159 -21 0
-211 -19 0
-212 -20 0
-213 -21 0
-256 -19 0
-257 -20 0
-258 -21 0
-379 -19 0
-380 -20 0
-381 -21 0
-88 -22 0
-89 -23 0
-90 -24 0
-337 -22 0
-338 -23 0
-339 -24 0
-76 -25 0
-77 -26 0
-78 -27 0
-106 -25 0
-107 -26 0
-108 -27 0
-190 -25 0
-191 -26 0
-192 -27 0
-322 -25 0
-323 -26 0
-324 -27 0
-364 -25 0
-365 -26 0
-366 -27 0
-91 -28 0
-92 -29 0
-93 -30 0
-97 -28 0
-98 -29 0
-99 -30 0
-286 -28 0
-287 -29 0
-288 -30 0
-124 -31 0
-125 -32 0
-126 -33 0
-136 -31 0
-137 -32 0
-138 -33 0
-157 -31 0
-158 -32 0
-159 -33 0
-235 -31 0
-236 -32 0
-237 -33 0
-250 -31 0
-251 -32 0
-252 -33 0
-268 -31 0
-269 -32 0
-270 -33 0
-334 -31 0
-335 -32 0
-336 -33 0
-403 -31 0
-404 -32 0
-405 -33 0
-40 -34 0
-41 -35 0
-42 -36 0
-169 -34 0
-170 -35 0
-171 -36 0
-283 -34 0
-284 -35 0
-285 -36 0
-412 -34 0
-413 -35 0
-414 -36 0
-445 -34 0
-446 -35 0
-447 -36 0
-154 -37 0
-155 -38 0
-156 -39 0
-196 -37 0
-197 -38 0
-198 -39 0
-226 -37 0
-227 -38 0
-228 -39 0
-331 -37 0
-332 -38 0
-333 -39 0
-355 -37 0
-356 -38 0
-357 -39 0
-439 -37 0
-440 -38 0
-441 -39 0
-178 -40 0
-179 -41 0
-180 -42 0
-187 -40 0
-188 -41 0
-189 -42 0
-193 -40 0
-194 -41 0
-195 -42 0
-217 -40 0
-218 -41 0
-219 -42 0
-106 -43 0
-107 -44 0
-108 -45 0
-133 -43 0
-134 -44 0
-135 -45 0
-265 -43 0
-266 -44 0
-267 -45 0
-373 -43 0
-374 -44 0
-375 -45 0
-154 -46 0
-155 -47 0
-156 -48 0
-235 -46 0
-236 -47 0
-237 -48 0
-238 -46 0
-239 -47 0
-240 -48 0
-304 -46 0
-305 -47 0
-306 -48 0
-325 -46 0
-326 -47 0
-327 -48 0
-403 -46 0
-404 -47 0
-405 -48 0
-439 -46 0
-440 -47 0
-441 -48 0
-163 -49 0
-164 -50 0
-165 -51 0
-337 -49 0
-338 -50 0
-339 -51 0
-358 -49 0
-359 -50 0
-360 -51 0
-85 -52 0
-86 -53 0
-87 -54 0
-208 -52 0
-209 -53 0
-210 -54 0
-223 -52 0
-224 -53 0
-225 -54 0
-298 -52 0
-299 -53 0
-300 -54 0
-325 -52 0
-326 -53 0
-327 -54 0
-355 -52 0
-356 -53 0
-357 -54 0
-448 -52 0
-449 -53 0
-450 -54 0
-85 -55 0
-86 -56 0
-87 -57 0
-91 -55 0
-92 -56 0
-93 -57 0
-130 -55 0
-131 -56 0
-132 -57 0
-286 -55 0
-287 -56 0
-288 -57 0
-319 -55 0
-320 -56 0
-321 -57 0
-325 -55 0
-326 -56 0
-327 -57 0
-352 -55 0
-353 -56 0
-354 -57 0
-157 -58 0
-158 -59 0
-159 -60 0
-199 -58 0
-200 -59 0
-201 -60 0
-262 -58 0
-263 -59 0
-264 -60 0
-298 -58 0
-299 -59 0
-300 -60 0
-94 -61 0
-95 -62 0
-96 -63 0
-154 -61 0
-155 -62 0
-156 -63 0
-226 -61 0
-227 -62 0
-228 -63 0
-445 -61 0
-446 -62 0
-447 -63 0
-85 -64 0
-86 -65 0
-87 -66 0
-112 -64 0
-113 -65 0
-114 -66 0
-247 -64 0
-248 -65 0
-249 -66 0
-289 -64 0
-290 -65 0
-291 -66 0
-349 -64 0
-350 -65 0
-351 -66 0
-406 -64 0
-407 -65 0
-408 -66 0
-124 -67 0
-125 -68 0
-126 -69 0
-142 -67 0
-143 -68 0
-144 -69 0
-145 -67 0
-146 -68 0
-147 -69 0
-382 -67 0
-383 -68 0
-384 -69 0
-157 -70 0
-158 -71 0
-159 -72 0
-217 -70 0
-218 -71 0
-219 -72 0
-256 -70 0
-257 -71 0
-258 -72 0
-340 -70 0
-341 -71 0
-342 -72 0
-430 -70 0
-431 -71 0
-432 -72 0
-100 -73 0
-101 -74 0
-102 -75 0
-166 -73 0
-167 -74 0
-168 -75 0
-229 -73 0
-230 -74 0
-231 -75 0
-277 -73 0
-278 -74 0
-279 -75 0
-406 -73 0
-407 -74 0
-408 -75 0
-448 -73 0
-449 -74 0
-450 -75 0
-100 -76 0
-101 -77 0
-102 -78 0
-130 -76 0
-131 -77 0
-132 -78 0
-148 -76 0
-149 -77 0
-150 -78 0
-169 -76 0
-170 -77 0
-171 -78 0
-328 -76 0
-329 -77 0
-330 -78 0
-103 -79 0
-104 -80 0
-105 -81 0
-196 -79 0
-197 -80 0
-198 -81 0
-229 -79 0
-230 -80 0
-231 -81 0
-283 -79 0
-284 -80 0
-285 -81 0
-403 -79 0
-404 -80 0
-405 -81 0
-391 -82 0
-392 -83 0
-393 -84 0
-91 -85 0
-92 -86 0
-93 -87 0
-220 -85 0
-221 -86 0
-222 -87 0
-385 -85 0
-386 -86 0
-387 -87 0
-109 -88 0
-110 -89 0
-111 -90 0
-295 -88 0
-296 -89 0
-297 -90 0
-130 -91 0
-131 -92 0
-132 -93 0
-445 -91 0
-446 -92 0
-447 -93 0
-166 -94 0
-167 -95 0
-168 -96 0
-319 -94 0
-320 -95 0
-321 -96 0
-430 -94 0
-431 -95 0
-432 -96 0
-436 -94 0
-437 -95 0
-438 -96 0
-439 -94 0
-440 -95 0
-441 -96 0
-202 -97 0
-203 -98 0
-204 -99 0
-394 -97 0
-395 -98 0
-396 -99 0
-352 -100 0
-353 -101 0
-354 -102 0
-370 -100 0
-371 -101 0
-372 -102 0
-436 -100 0
-437 -101 0
-438 -102 0
-172 -103 0
-173 -104 0
-174 -105 0
-253 -103 0
-254 -104 0
-255 -105 0
-274 -103 0
-275 -104 0
-276 -105 0
-322 -103 0
-323 -104 0
-324 -105 0
-436 -103 0
-437 -104 0
-438 -105 0
-442 -103 0
-443 -104 0
-444 -105 0
-205 -106 0
-206 -107 0
-207 -108 0
-220 -106 0
-221 -107 0
-222 -108 0
-343 -106 0
-344 -107 0
-345 -108 0
-403 -106 0
-404 -107 0
-405 -108 0
-448 -106 0
-449 -107 0
-450 -108 0
-190 -109 0
-191 -110 0
-192 -111 0
-289 -109 0
-290 -110 0
-291 -111 0
-199 -112 0
-200 -113 0
-201 -114 0
-208 -112 0
-209 -113 0
-210 -114 0
-418 -112 0
-419 -113 0
-420 -114 0
-190 -118 0
-191 -119 0
-192 -120 0
-190 -121 0
-191 -122 0
-192 -123 0
-223 -121 0
-224 -122 0
-225 -123 0
-229 -121 0
-230 -122 0
-231 -123 0
-289 -121 0
-290 -122 0
-291 -123 0
-406 -121 0
-407 -122 0
-408 -123 0
-253 -124 0
-254 -125 0
-255 -126 0
-289 -124 0
-290 -125 0
-291 -126 0
-370 -124 0
-371 -125 0
-372 -126 0
-196 -127 0
-197 -128 0
-198 -129 0
-202 -127 0
-203 -128 0
-204 -129 0
-214 -127 0
-215 -128 0
-216 -129 0
-244 -127 0
-245 -128 0
-246 -129 0
-292 -127 0
-293 -128 0
-294 -129 0
-358 -127 0
-359 -128 0
-360 -129 0
-175 -130 0
-176 -131 0
-177 -132 0
-238 -130 0
-239 -131 0
-240 -132 0
-277 -130 0
-278 -131 0
-279 -132 0
-304 -130 0
-305 -131 0
-306 -132 0
-349 -130 0
-350 -131 0
-351 -132 0
-217 -133 0
-218 -134 0
-219 -135 0
-238 -133 0
-239 -134 0
-240 -135 0
-241 -133 0
-242 -134 0
-243 -135 0
-250 -133 0
-251 -134 0
-252 -135 0
-310 -133 0
-311 -134 0
-312 -135 0
-358 -133 0
-359 -134 0
-360 -135 0
-196 -136 0
-197 -137 0
-198 -138 0
-355 -136 0
-356 -137 0
-357 -138 0
-385 -136 0
-386 -137 0
-387 -138 0
-163 -139 0
-164 -140 0
-165 -141 0
-181 -139 0
-182 -140 0
-183 -141 0
-199 -139 0
-200 -140 0
-201 -141 0
-391 -139 0
-392 -140 0
-393 -141 0
-439 -139 0
-440 -140 0
-441 -141 0
-346 -142 0
-347 -143 0
-348 -144 0
-370 -142 0
-371 -143 0
-372 -144 0
-427 -142 0
-428 -143 0
-429 -144 0
-442 -142 0
-443 -143 0
-444 -144 0
-190 -145 0
-191 -146 0
-192 -147 0
-223 -145 0
-224 -146 0
-225 -147 0
-232 -148 0
-233 -149 0
-234 -150 0
-277 -148 0
-278 -149 0
-279 -150 0
-301 -148 0
-302 -149 0
-303 -150 0
-154 -151 0
-155 -152 0
-156 -153 0
-202 -151 0
-203 -152 0
-204 -153 0
-235 -151 0
-236 -152 0
-237 -153 0
-313 -151 0
-314 -152 0
-315 -153 0
-376 -151 0
-377 -152 0
-378 -153 0
-262 -154 0
-263 -155 0
-264 -156 0
-190 -157 0
-191 -158 0
-192 -159 0
-271 -157 0
-272 -158 0
-273 -159 0
-283 -157 0
-284 -158 0
-285 -159 0
-319 -157 0
-320 -158 0
-321 -159 0
-202 -160 0
-203 -161 0
-204 -162 0
-226 -160 0
-227 -161 0
-228 -162 0
-241 -160 0
-242 -161 0
-243 -162 0
-271 -160 0
-272 -161 0
-273 -162 0
-271 -163 0
-272 -164 0
-273 -165 0
-430 -163 0
-431 -164 0
-432 -165 0
-337 -166 0
-338 -167 0
-339 -168 0
-445 -166 0
-446 -167 0
-447 -168 0
-205 -169 0
-206 -170 0
-207 -171 0
-238 -169 0
-239 -170 0
-240 -171 0
-250 -172 0
-251 -173 0
-252 -174 0
-340 -172 0
-341 -173 0
-342 -174 0
-349 -172 0
-350 -173 0
-351 -174 0
-400 -172 0
-401 -173 0
-402 -174 0
-274 -175 0
-275 -176 0
-276 -177 0
-361 -175 0
-362 -176 0
-363 -177 0
-400 -175 0
-401 -176 0
-402 -177 0
-199 -178 0
-200 -179 0
-201 -180 0
-214 -178 0
-215 -179 0
-216 -180 0
-283 -178 0
-284 -179 0
-285 -180 0
-238 -181 0
-239 -182 0
-240 -183 0
-274 -181 0
-275 -182 0
-276 -183 0
-298 -181 0
-299 -182 0
-300 -183 0
-361 -181 0
-362 -182 0
-363 -183 0
-262 -184 0
-263 -185 0
-264 -186 0
-340 -184 0
-341 -185 0
-342 -186 0
-403 -184 0
-404 -185 0
-405 -186 0
-316 -187 0
-317 -188 0
-318 -189 0
-196 -190 0
-197 -191 0
-198 -192 0
-379 -190 0
-380 -191 0
-381 -192 0
-226 -193 0
-227 -194 0
-228 -195 0
-376 -193 0
-377 -194 0
-378 -195 0
-397 -193 0
-398 -194 0
-399 -195 0
-244 -196 0
-245 -197 0
-246 -198 0
-304 -196 0
-305 -197 0
-306 -198 0
-397 -196 0
-398 -197 0
-399 -198 0
-235 -199 0
-236 -200 0
-237 -201 0
-322 -199 0
-323 -200 0
-324 -201 0
-403 -199 0
-404 -200 0
-405 -201 0
-445 -202 0
-446 -203 0
-447 -204 0
-418 -205 0
-419 -206 0
-420 -207 0
-313 -208 0
-314 -209 0
-315 -210 0
-286 -211 0
-287 -212 0
-288 -213 0
-295 -211 0
-296 -212 0
-297 -213 0
-304 -211 0
-305 -212 0
-306 -213 0
-322 -211 0
-323 -212 0
-324 -213 0
-304 -214 0
-305 -215 0
-306 -216 0
-382 -214 0
-383 -215 0
-384 -216 0
-388 -214 0
-389 -215 0
-390 -216 0
-400 -214 0
-401 -215 0
-402 -216 0
-286 -217 0
-287 -218 0
-288 -219 0
-343 -217 0
-344 -218 0
-345 -219 0
-370 -217 0
-371 -218 0
-372 -219 0
-313 -220 0
-314 -221 0
-315 -222 0
-388 -220 0
-389 -221 0
-390 -222 0
-238 -223 0
-239 -224 0
-240 -225 0
-259 -223 0
-260 -224 0
-261 -225 0
-331 -223 0
-332 -224 0
-333 -225 0
-340 -223 0
-341 -224 0
-342 -225 0
-385 -223 0
-386 -224 0
-387 -225 0
-271 -226 0
-272 -227 0
-273 -228 0
-448 -226 0
-449 -227 0
-450 -228 0
-337 -229 0
-338 -230 0
-339 -231 0
-277 -232 0
-278 -233 0
-279 -234 0
-433 -232 0
-434 -233 0
-435 -234 0
-283 -235 0
-284 -236 0
-285 -237 0
-310 -235 0
-311 -236 0
-312 -237 0
-433 -235 0
-434 -236 0
-435 -237 0
-340 -238 0
-341 -239 0
-342 -240 0
-427 -238 0
-428 -239 0
-429 -240 0
-346 -241 0
-347 -242 0
-348 -243 0
-442 -241 0
-443 -242 0
-444 -243 0
-277 -244 0
-278 -245 0
-279 -246 0
-319 -244 0
-320 -245 0
-321 -246 0
-322 -244 0
-323 -245 0
-324 -246 0
-349 -244 0
-350 -245 0
-351 -246 0
-373 -244 0
-374 -245 0
-375 -246 0
-358 -247 0
-359 -248 0
-360 -249 0
-373 -247 0
-374 -248 0
-375 -249 0
-448 -247 0
-449 -248 0
-450 -249 0
-373 -250 0
-374 -251 0
-375 -252 0
-358 -256 0
-359 -257 0
-360 -258 0
-361 -256 0
-362 -257 0
-363 -258 0
-445 -256 0
-446 -257 0
-447 -258 0
-325 -262 0
-326 -263 0
-327 -264 0
-361 -262 0
-362 -263 0
-363 -264 0
-313 -268 0
-314 -269 0
-315 -270 0
-418 -268 0
-419 -269 0
-420 -270 0
-445 -268 0
-446 -269 0
-447 -270 0
-436 -271 0
-437 -272 0
-438 -273 0
-277 -274 0
-278 -275 0
-279 -276 0
-400 -274 0
-401 -275 0
-402 -276 0
-310 -277 0
-311 -278 0
-312 -279 0
-304 -280 0
-305 -281 0
-306 -282 0
-346 -280 0
-347 -281 0
-348 -282 0
-412 -280 0
-413 -281 0
-414 -282 0
-385 -283 0
-386 -284 0
-387 -285 0
-436 -283 0
-437 -284 0
-438 -285 0
-352 -286 0
-353 -287 0
-354 -288 0
-295 -289 0
-296 -290 0
-297 -291 0
-394 -292 0
-395 -293 0
-396 -294 0
-334 -295 0
-335 -296 0
-336 -297 0
-346 -295 0
-347 -296 0
-348 -297 0
-406 -295 0
-407 -296 0
-408 -297 0
-349 -298 0
-350 -299 0
-351 -300 0
-313 -301 0
-314 -302 0
-315 -303 0
-358 -301 0
-359 -302 0
-360 -303 0
-412 -304 0
-413 -305 0
-414 -306 0
-322 -307 0
-323 -308 0
-324 -309 0
-430 -310 0
-431 -311 0
-432 -312 0
-331 -313 0
-332 -314 0
-333 -315 0
-391 -313 0
-392 -314 0
-393 -315 0
-319 -316 0
-320 -317 0
-321 -318 0
-352 -316 0
-353 -317 0
-354 -318 0
-328 -319 0
-329 -320 0
-330 -321 0
-421 -325 0
-422 -326 0
-423 -327 0
-439 -325 0
-440 -326 0
-441 -327 0
-403 -328 0
-404 -329 0
-405 -330 0
-433 -331 0
-434 -332 0
-435 -333 0
-442 -331 0
-443 -332 0
-444 -333 0
-379 -337 0
-380 -338 0
-381 -339 0
-418 -340 0
-419 -341 0
-420 -342 0
-379 -343 0
-380 -344 0
-381 -345 0
-388 -343 0
-389 -344 0
-390 -345 0
-391 -346 0
-392 -347 0
-393 -348 0
-415 -346 0
-416 -347 0
-417 -348 0
-379 -370 0
-380 -371 0
-381 -372 0
-406 -370 0
-407 -371 0
-408 -372 0
-409 -388 0
-410 -389 0
-411 -390 0
-430 -388 0
-431 -389 0
-432 -390 0
-400 -391 0
-401 -392 0
-402 -393 0
-421 -391 0
-422 -392 0
-423 -393 0
-445 -394 0
-446 -395 0
-447 -396 0
-424 -397 0
-425 -398 0
-426 -399 0
-427 -397 0
-428 -398 0
-429 -399 0
-412 -403 0
-413 -404 0
-414 -405 0
-424 -406 0
-425 -407 0
-426 -408 0
-427 -409 0
-428 -410 0
-429 -411 0
-442 -409 0
-443 -410 0
-444 -411 0
-430 -418 0
-431 -419 0
-432 -420 0
